nNurses = 199;
nHours = 34;
minHours = 4;
maxHours = 15;
maxConsec = 8;
maxPresence = 34;
demand = [14, 11, 13, 8, 10, 11, 16, 21, 21, 19, 14, 12, 12, 9, 7, 7, 12, 15, 13, 12, 17, 14, 14, 15, 13, 10, 13, 17, 17, 13, 16, 21, 23, 19];
